GLPSOL: GLPK LP/MIP Solver, v4.57
Parameter(s) specified in the command line:
 -m orientering_problem.mod -d data/ber25.dat -o solutions/ber25.sol
Reading model section from orientering_problem.mod...
38 lines were read
Reading data section from data/ber25.dat...
data/ber25.dat:57: warning: final NL missing before end of file
57 lines were read
Generating obj...
Generating c1...
Generating c2...
Generating c3...
Generating c4...
Generating c5...
Generating c6...
Generating c7...
Generating c8...
Generating c9...
Generating c10...
Model has been successfully generated
GLPK Integer Optimizer, v4.57
703 rows, 675 columns, 5379 non-zeros
650 integer variables, all of which are binary
Preprocessing...
653 rows, 650 columns, 5282 non-zeros
626 integer variables, all of which are binary
Scaling...
 A: min|aij| =  1.000e+00  max|aij| =  1.639e+03  ratio =  1.639e+03
GM: min|aij| =  3.919e-01  max|aij| =  2.551e+00  ratio =  6.509e+00
EQ: min|aij| =  1.562e-01  max|aij| =  1.000e+00  ratio =  6.401e+00
2N: min|aij| =  1.250e-01  max|aij| =  1.646e+00  ratio =  1.317e+01
Constructing initial basis...
Size of triangular part is 651
Solving LP relaxation...
GLPK Simplex Optimizer, v4.57
653 rows, 650 columns, 5282 non-zeros
      0: obj =   3.400000000e+01 inf =   1.000e+00 (1)
      1: obj =   3.400000000e+01 inf =   0.000e+00 (0)
*   102: obj =   8.940000000e+02 inf =   1.318e-14 (0)
OPTIMAL LP SOLUTION FOUND
Integer optimization begins...
+   102: mip =     not found yet <=              +inf        (1; 0)
+ 32171: mip =     not found yet <=   8.940000000e+02        (2048; 250)
+ 65773: mip =     not found yet <=   8.700000000e+02        (4055; 583)
+ 94439: mip =     not found yet <=   8.640000000e+02        (5571; 902)
+125902: mip =     not found yet <=   8.590000000e+02        (7386; 1213)
+158483: mip =     not found yet <=   8.590000000e+02        (9311; 1495)
+188799: mip =     not found yet <=   8.590000000e+02        (11389; 1755)
+219489: mip =     not found yet <=   8.590000000e+02        (13408; 2022)
+250339: mip =     not found yet <=   8.540000000e+02        (14987; 2416)
+282702: mip =     not found yet <=   8.490000000e+02        (16415; 2783)
+314782: mip =     not found yet <=   8.420000000e+02        (18045; 3099)
+345715: mip =     not found yet <=   8.370000000e+02        (19683; 3421)
Time used: 60.0 secs.  Memory used: 36.1 Mb.
+374454: mip =     not found yet <=   8.370000000e+02        (21612; 3671)
+404590: mip =     not found yet <=   8.350000000e+02        (23381; 3960)
+433003: mip =     not found yet <=   8.320000000e+02        (24818; 4280)
+461157: mip =     not found yet <=   8.290000000e+02        (26154; 4611)
+467702: >>>>>   5.320000000e+02 <=   8.290000000e+02  55.8% (26488; 4678)
+491997: mip =   5.320000000e+02 <=   8.260000000e+02  55.3% (24636; 10107)
+515223: mip =   5.320000000e+02 <=   8.240000000e+02  54.9% (25836; 10396)
+536999: mip =   5.320000000e+02 <=   8.220000000e+02  54.5% (27040; 10671)
+557545: mip =   5.320000000e+02 <=   8.200000000e+02  54.1% (28127; 10942)
+578366: mip =   5.320000000e+02 <=   8.170000000e+02  53.6% (29206; 11214)
+598649: mip =   5.320000000e+02 <=   8.150000000e+02  53.2% (30308; 11495)
+616113: mip =   5.320000000e+02 <=   8.130000000e+02  52.8% (31155; 11740)
+630725: mip =   5.320000000e+02 <=   8.120000000e+02  52.6% (31829; 11955)
Time used: 120.0 secs.  Memory used: 60.2 Mb.
+643836: mip =   5.320000000e+02 <=   8.100000000e+02  52.3% (32472; 12153)
+656187: mip =   5.320000000e+02 <=   8.090000000e+02  52.1% (33071; 12323)
+668854: mip =   5.320000000e+02 <=   8.090000000e+02  52.1% (33681; 12459)
+683714: mip =   5.320000000e+02 <=   8.090000000e+02  52.1% (34295; 12602)
+697974: mip =   5.320000000e+02 <=   8.090000000e+02  52.1% (34817; 12748)
+709984: mip =   5.320000000e+02 <=   8.080000000e+02  51.9% (35426; 12897)
+721058: mip =   5.320000000e+02 <=   8.070000000e+02  51.7% (35990; 13060)
+732082: mip =   5.320000000e+02 <=   8.050000000e+02  51.3% (36584; 13220)
+741627: mip =   5.320000000e+02 <=   8.050000000e+02  51.3% (37062; 13382)
+749503: mip =   5.320000000e+02 <=   8.040000000e+02  51.1% (37486; 13500)
+758260: mip =   5.320000000e+02 <=   8.030000000e+02  50.9% (37986; 13630)
+766038: mip =   5.320000000e+02 <=   8.030000000e+02  50.9% (38442; 13746)
Time used: 180.0 secs.  Memory used: 76.2 Mb.
+775876: mip =   5.320000000e+02 <=   8.020000000e+02  50.8% (39018; 13885)
+785300: mip =   5.320000000e+02 <=   8.010000000e+02  50.6% (39523; 14022)
+797405: mip =   5.320000000e+02 <=   8.000000000e+02  50.4% (40191; 14211)
+809923: mip =   5.320000000e+02 <=   7.990000000e+02  50.2% (40820; 14398)
+819950: mip =   5.320000000e+02 <=   7.980000000e+02  50.0% (41358; 14539)
+831648: mip =   5.320000000e+02 <=   7.970000000e+02  49.8% (41996; 14705)
+842541: mip =   5.320000000e+02 <=   7.960000000e+02  49.6% (42646; 14870)
+853968: mip =   5.320000000e+02 <=   7.950000000e+02  49.4% (43274; 15042)
+866509: mip =   5.320000000e+02 <=   7.940000000e+02  49.2% (43972; 15222)
+879492: mip =   5.320000000e+02 <=   7.930000000e+02  49.1% (44715; 15389)
+891672: mip =   5.320000000e+02 <=   7.920000000e+02  48.9% (45365; 15574)
+903738: mip =   5.320000000e+02 <=   7.910000000e+02  48.7% (46004; 15769)
Time used: 240.0 secs.  Memory used: 94.9 Mb.
+916406: mip =   5.320000000e+02 <=   7.900000000e+02  48.5% (46623; 15969)
+929329: mip =   5.320000000e+02 <=   7.890000000e+02  48.3% (47213; 16169)
+942079: mip =   5.320000000e+02 <=   7.880000000e+02  48.1% (47920; 16367)
+954735: mip =   5.320000000e+02 <=   7.870000000e+02  47.9% (48534; 16554)
+969608: mip =   5.320000000e+02 <=   7.870000000e+02  47.9% (48947; 16830)
+985895: mip =   5.320000000e+02 <=   7.870000000e+02  47.9% (49520; 17043)
+1003395: mip =   5.320000000e+02 <=   7.870000000e+02  47.9% (50270; 17207)
+1018109: mip =   5.320000000e+02 <=   7.870000000e+02  47.9% (50916; 17333)
+1031594: mip =   5.320000000e+02 <=   7.870000000e+02  47.9% (51457; 17444)
+1044006: mip =   5.320000000e+02 <=   7.870000000e+02  47.9% (51870; 17599)
+1055391: mip =   5.320000000e+02 <=   7.870000000e+02  47.9% (52396; 17712)
+1068577: mip =   5.320000000e+02 <=   7.870000000e+02  47.9% (52969; 17830)
Time used: 300.0 secs.  Memory used: 109.6 Mb.
+1082694: mip =   5.320000000e+02 <=   7.870000000e+02  47.9% (53492; 17952)
+1096942: mip =   5.320000000e+02 <=   7.870000000e+02  47.9% (54018; 18083)
+1109351: mip =   5.320000000e+02 <=   7.870000000e+02  47.9% (54537; 18194)
+1120803: mip =   5.320000000e+02 <=   7.870000000e+02  47.9% (54994; 18302)
+1132928: mip =   5.320000000e+02 <=   7.870000000e+02  47.9% (55549; 18417)
+1144971: mip =   5.320000000e+02 <=   7.870000000e+02  47.9% (56019; 18539)
+1156896: mip =   5.320000000e+02 <=   7.870000000e+02  47.9% (56555; 18641)
+1166433: mip =   5.320000000e+02 <=   7.870000000e+02  47.9% (56999; 18740)
+1175344: mip =   5.320000000e+02 <=   7.870000000e+02  47.9% (57393; 18833)
+1186195: mip =   5.320000000e+02 <=   7.870000000e+02  47.9% (57887; 18937)
+1198481: mip =   5.320000000e+02 <=   7.870000000e+02  47.9% (58342; 19057)
